//Number of items      		
173
//Bin Capacity      
1000
//Known Best Solution  		
75
//Weight of Item
     699         1
     698         1
     695         3
     693         1
     677         1
     665         1
     663         1
     658         1
     656         1
     654         1
     647         1
     644         1
     643         2
     639         1
     638         1
     636         1
     630         1
     622         1
     618         1
     613         3
     610         1
     608         1
     599         2
     598         1
     597         3
     592         1
     591         1
     587         2
     584         1
     580         1
     577         1
     576         1
     570         1
     566         1
     565         2
     564         1
     561         1
     558         1
     556         1
     553         1
     550         1
     542         2
     539         1
     535         1
     533         1
     532         1
     531         2
     529         1
     528         2
     526         1
     525         1
     523         1
     519         2
     512         1
     506         1
     500         1
     494         3
     491         1
     490         1
     486         1
     485         1
     484         1
     482         2
     475         1
     472         1
     460         1
     458         1
     436         1
     435         1
     433         1
     430         1
     428         1
     427         1
     426         1
     423         1
     415         1
     409         1
     407         1
     404         1
     402         1
     398         1
     396         1
     395         1
     392         1
     388         1
     384         1
     373         1
     372         1
     356         2
     355         1
     353         1
     352         1
     345         1
     332         2
     329         1
     318         1
     316         1
     315         1
     307         2
     306         1
     292         1
     289         1
     288         1
     287         1
     286         1
     285         2
     283         2
     282         1
     280         1
     279         1
     272         1
     268         1
     263         1
     261         1
     256         1
     250         2
     246         1
     245         1
     244         1
     243         1
     237         1
     233         1
     223         1
     214         1
     213         1
     212         1
     211         2
     208         1
     203         1
     199         1
     191         1
     186         1
     184         1
     176         1
     175         1
     166         1
     158         1
     157         1
     153         1
     146         1
     144         1
     143         2
     142         1
     135         1
     131         1
     123         2
     122         1
     120         2
     119         1
     115         1
     114         1
     111         1
     107         1
     105         1
     101         1
      99         1
      95         1
      91         1
      84         1
      67         1
      65         1
      47         1
      45         1
      38         1
      32         1
      30         1
      13         1
      11         1
      10         1
       8         1
       7         1
       6         1
       4         1